ITEM: TIMESTEP
0
ITEM: NUMBER OF ATOMS
136
ITEM: BOX BOUNDS pp pp pp
0.0 12.4212114000
0.0 21.5141692000
0.0 20.1312910000
ITEM: ATOMS id type x y z
1 1 12.42000000 7.12000000 8.69000000
2 1 6.17000000 3.61000000 8.62000000
3 1 6.21000000 3.64000000 1.37000000
4 1 12.37000000 7.20000000 1.37000000
5 1 0.05000000 2.80000000 0.04000000
6 1 8.61000000 9.31000000 20.09129100
7 1 3.81000000 9.32000000 0.04000000
8 1 6.21000000 7.89000000 0.00000000
9 1 10.02000000 1.44000000 0.04000000
10 1 2.49000000 1.44000000 0.00000000
11 1 3.74000000 6.59000000 6.45000000
12 1 9.99000000 4.12000000 6.39000000
13 1 4.84000000 0.05000000 6.45000000
14 1 2.35000000 4.16000000 6.39000000
15 1 8.68000000 6.59000000 6.45000000
16 1 7.64000000 0.05000000 6.39000000
17 1 2.38000000 4.22000000 3.62000000
18 1 8.64000000 6.64000000 3.68000000
19 1 7.58000000 21.46416920 3.62000000
20 1 3.78000000 6.64000000 3.68000000
21 1 9.96000000 4.17000000 3.62000000
22 1 4.78000000 0.05000000 3.68000000
23 1 6.21000000 6.29000000 7.74000000
24 1 8.52000000 2.25000000 7.87000000
25 1 3.83000000 2.26000000 7.82000000
26 1 12.37000000 4.44000000 7.82000000
27 1 10.16000000 8.54000000 7.79000000
28 1 2.31000000 8.50000000 7.87000000
29 1 12.37000000 4.53000000 2.28000000
30 1 10.08000000 8.58000000 2.25000000
31 1 2.26000000 8.53000000 2.28000000
32 1 6.21000000 6.29000000 2.32000000
33 1 8.47000000 2.22000000 2.28000000
34 1 3.90000000 2.31000000 2.28000000
35 1 0.04878860 7.15000000 18.69000000
36 1 6.26000000 3.61000000 18.69000000
37 1 6.26000000 3.56000000 11.44000000
38 1 12.38000000 7.15000000 11.51000000
39 1 0.00000000 2.74000000 10.07000000
40 1 8.61000000 9.31000000 10.02000000
41 1 3.84000000 9.39000000 10.07000000
42 1 6.21000000 7.89000000 10.07000000
43 1 9.97000000 1.36000000 10.11000000
44 1 2.45000000 1.36000000 10.11000000
45 1 3.78000000 6.64000000 16.45000000
46 1 9.96000000 4.17000000 16.51000000
47 1 4.77000000 0.00000000 16.53000000
48 1 2.38000000 4.22000000 16.51000000
49 1 8.64000000 6.64000000 16.45000000
50 1 7.58000000 21.46416920 16.51000000
51 1 2.43000000 4.12000000 13.75000000
52 1 8.59000000 6.54000000 13.69000000
53 1 7.56000000 0.00000000 13.77000000
54 1 3.74000000 6.59000000 13.69000000
55 1 10.07000000 4.16000000 13.75000000
56 1 4.78000000 21.46416920 13.75000000
57 1 6.21000000 6.29000000 17.81000000
58 1 8.55000000 2.18000000 17.88000000
59 1 3.90000000 2.31000000 17.85000000
60 1 12.37000000 4.44000000 17.88000000
61 1 10.16000000 8.54000000 17.85000000
62 1 2.34000000 8.57000000 17.88000000
63 1 0.04878860 4.44000000 12.32000000
64 1 10.04000000 8.50000000 12.32000000
65 1 2.31000000 8.50000000 12.26000000
66 1 6.16000000 6.23000000 12.34000000
67 1 8.55000000 2.23000000 12.39000000
68 1 3.95000000 2.22000000 12.34000000
69 1 6.21000000 17.98000000 8.62000000
70 1 0.00000000 14.40000000 8.69000000
71 1 0.00000000 14.29000000 1.45000000
72 1 6.21000000 17.98000000 1.45000000
73 1 6.16000000 13.56000000 0.04000000
74 1 2.45000000 20.15000000 20.09129100
75 1 9.97000000 20.16000000 20.09129100
76 1 12.42000000 18.77000000 0.00000000
77 1 3.76000000 12.12000000 20.09129100
78 1 8.59000000 12.13000000 0.00000000
79 1 9.96000000 17.35000000 6.45000000
80 1 3.82000000 14.89000000 6.46000000
81 1 10.99000000 10.80000000 6.39000000
82 1 8.64000000 14.88000000 6.39000000
83 1 2.43000000 17.31000000 6.36000000
84 1 1.37000000 10.71000000 6.45000000
85 1 8.59000000 14.98000000 3.62000000
86 1 2.39000000 17.38000000 3.61000000
87 1 1.43000000 10.80000000 3.68000000
88 1 10.07000000 17.35000000 3.68000000
89 1 3.78000000 14.96000000 3.71000000
90 1 11.05000000 10.81000000 3.62000000
91 1 0.00000000 17.05000000 7.74000000
92 1 2.26000000 12.98000000 7.79000000
93 1 10.11000000 13.01000000 7.87000000
94 1 6.26000000 15.29000000 7.79000000
95 1 3.87000000 19.28000000 7.74000000
96 1 8.55000000 19.33000000 7.82000000
97 1 6.16000000 15.29000000 2.28000000
98 1 3.87000000 19.33000000 2.25000000
99 1 8.60000000 19.25000000 2.25000000
100 1 0.00000000 17.01000000 2.20000000
101 1 2.38000000 13.02000000 2.25000000
102 1 10.04000000 13.02000000 2.25000000
103 1 6.21000000 17.87000000 18.76000000
104 1 0.05000000 14.31000000 18.76000000
105 1 0.00000000 14.29000000 11.51000000
106 1 6.26000000 17.96000000 11.44000000
107 1 6.21000000 13.63000000 10.07000000
108 1 2.49000000 20.08000000 10.07000000
109 1 10.02000000 20.07000000 10.11000000
110 1 0.04878860 18.71000000 10.02000000
111 1 3.81000000 12.20000000 10.02000000
112 1 8.59000000 12.13000000 10.07000000
113 1 10.07000000 17.35000000 16.45000000
114 1 3.83000000 14.98000000 16.51000000
115 1 10.99000000 10.80000000 16.45000000
116 1 8.68000000 14.92000000 16.51000000
117 1 2.35000000 17.35000000 16.45000000
118 1 1.35000000 10.76000000 16.43000000
119 1 8.64000000 14.88000000 13.75000000
120 1 2.38000000 17.29000000 13.69000000
121 1 1.44000000 10.76000000 13.67000000
122 1 10.05000000 17.29000000 13.69000000
123 1 3.86000000 14.92000000 13.75000000
124 1 11.05000000 10.71000000 13.69000000
125 1 0.00000000 17.01000000 17.93000000
126 1 2.34000000 12.99000000 17.81000000
127 1 10.11000000 13.01000000 17.93000000
128 1 6.26000000 15.20000000 17.88000000
129 1 3.90000000 19.21000000 17.85000000
130 1 8.52000000 19.21000000 17.85000000
131 1 6.26000000 15.29000000 12.34000000
132 1 3.90000000 19.21000000 12.34000000
133 1 8.55000000 19.28000000 12.39000000
134 1 0.00000000 17.01000000 12.26000000
135 1 2.38000000 13.02000000 12.32000000
136 1 10.08000000 12.94000000 12.32000000
